(set-logic ALL)
(declare-fun var0 () String)
(assert (str.in_re var0 (re.++ (re.union (re.+ (str.to_re "00")) (re.+ (str.to_re "1"))) (re.++ (re.union (re.* (str.to_re "22")) (re.* (str.to_re "33"))) (re.++ (re.* (re.+ (str.to_re "444"))) (re.++ (re.* (re.union (str.to_re "555") (str.to_re "666"))) (re.++ (re.+ (re.+ (str.to_re "7"))) (re.++ (re.union (re.union (str.to_re "888") (str.to_re "9")) (re.union (str.to_re "aa") (str.to_re "bbb"))) (re.++ (re.union (re.* (str.to_re "ccc")) (re.* (str.to_re "d"))) (re.++ (re.* (re.union (str.to_re "eee") (str.to_re "f"))) (re.++ (re.* (re.union (str.to_re "g") (str.to_re "hhh"))) (re.++ (re.+ (re.* (str.to_re "i"))) (re.++ (re.* (re.union (str.to_re "jj") (str.to_re "kk"))) (re.++ (re.union (re.+ (str.to_re "l")) (re.+ (str.to_re "m"))) (re.++ (re.+ (re.+ (str.to_re "nn"))) (re.++ (re.union (re.* (str.to_re "oo")) (re.* (str.to_re "p"))) (re.++ (re.* (re.* (str.to_re "qq"))) (re.++ (re.union (re.union (str.to_re "rrr") (str.to_re "s")) (re.union (str.to_re "ttt") (str.to_re "uuu"))) (re.++ (re.+ (re.+ (str.to_re "v"))) (re.++ (re.* (re.* (str.to_re "w"))) (re.++ (re.union (re.+ (str.to_re "xxx")) (re.+ (str.to_re "yy"))) (re.++ (re.* (re.* (str.to_re "zz"))) (re.++ (re.union (re.+ (str.to_re "AA")) (re.+ (str.to_re "BBB"))) (re.++ (re.union (re.+ (str.to_re "C")) (re.+ (str.to_re "DD"))) (re.++ (re.union (re.union (str.to_re "EEE") (str.to_re "FFF")) (re.union (str.to_re "G") (str.to_re "H"))) (re.++ (re.+ (re.* (str.to_re "I"))) (re.++ (re.union (re.union (str.to_re "J") (str.to_re "K")) (re.union (str.to_re "LL") (str.to_re "MMM"))) (re.++ (re.+ (re.+ (str.to_re "NN"))) (re.++ (re.union (re.union (str.to_re "O") (str.to_re "P")) (re.union (str.to_re "QQQ") (str.to_re "RRR"))) (re.++ (re.union (re.+ (str.to_re "S")) (re.+ (str.to_re "T"))) (re.++ (re.union (re.* (str.to_re "U")) (re.* (str.to_re "V"))) (re.++ (re.+ (re.+ (str.to_re "WW"))) (re.++ (re.+ (re.+ (str.to_re "XX"))) (re.++ (re.* (re.* (str.to_re "Y"))) (re.++ (re.+ (re.+ (str.to_re "ZZZ"))) (re.++ (re.union (re.+ (str.to_re "!")) (re.+ (str.to_re """"""""))) (re.++ (re.+ (re.+ (str.to_re "##"))) (re.++ (re.union (re.* (str.to_re "$$")) (re.* (str.to_re "%%%"))) (re.++ (re.+ (re.* (str.to_re "&"))) (re.++ (re.+ (re.* (str.to_re "'''"))) (re.++ (re.+ (re.* (str.to_re "("))) (re.++ (re.* (re.union (str.to_re "))") (str.to_re "***"))) (re.++ (re.union (re.union (str.to_re "+++") (str.to_re ",,,")) (re.union (str.to_re "---") (str.to_re ".."))) (re.++ (re.union (re.+ (str.to_re "/")) (re.+ (str.to_re "::"))) (re.++ (re.* (re.+ (str.to_re ";;;"))) (re.++ (re.union (re.* (str.to_re "<<<")) (re.* (str.to_re "==="))) (re.++ (re.+ (re.union (str.to_re ">>") (str.to_re "???"))) (re.++ (re.+ (re.* (str.to_re "@@"))) (re.++ (re.* (re.+ (str.to_re "["))) (re.++ (re.* (re.+ (str.to_re "\\"))) (re.++ (re.+ (re.+ (str.to_re "]]]"))) (re.++ (re.union (re.* (str.to_re "^^^")) (re.* (str.to_re "___"))) (re.+ (re.union (str.to_re "`") (str.to_re "{{{")))))))))))))))))))))))))))))))))))))))))))))))))))))))
(assert (not (str.in_re var0 (re.++ (re.+ (re.+ (str.to_re "0"))) (re.++ (re.* (re.+ (str.to_re "111"))) (re.++ (re.union (re.union (str.to_re "22") (str.to_re "333")) (re.union (str.to_re "4") (str.to_re "5"))) (re.++ (re.* (re.+ (str.to_re "666"))) (re.++ (re.+ (re.* (str.to_re "77"))) (re.++ (re.union (re.+ (str.to_re "8")) (re.+ (str.to_re "9"))) (re.++ (re.+ (re.+ (str.to_re "aaa"))) (re.++ (re.* (re.union (str.to_re "bb") (str.to_re "ccc"))) (re.++ (re.union (re.+ (str.to_re "dd")) (re.+ (str.to_re "ee"))) (re.++ (re.* (re.+ (str.to_re "fff"))) (re.++ (re.+ (re.+ (str.to_re "ggg"))) (re.++ (re.* (re.* (str.to_re "hhh"))) (re.++ (re.union (re.union (str.to_re "i") (str.to_re "j")) (re.union (str.to_re "kkk") (str.to_re "l"))) (re.++ (re.+ (re.+ (str.to_re "mm"))) (re.++ (re.+ (re.+ (str.to_re "nn"))) (re.++ (re.union (re.+ (str.to_re "oo")) (re.+ (str.to_re "ppp"))) (re.++ (re.+ (re.* (str.to_re "qqq"))) (re.++ (re.union (re.+ (str.to_re "r")) (re.+ (str.to_re "sss"))) (re.++ (re.union (re.union (str.to_re "ttt") (str.to_re "uuu")) (re.union (str.to_re "vv") (str.to_re "ww"))) (re.++ (re.* (re.union (str.to_re "xx") (str.to_re "y"))) (re.++ (re.* (re.union (str.to_re "zz") (str.to_re "AA"))) (re.++ (re.union (re.union (str.to_re "BB") (str.to_re "CCC")) (re.union (str.to_re "D") (str.to_re "EE"))) (re.++ (re.union (re.+ (str.to_re "FF")) (re.+ (str.to_re "G"))) (re.++ (re.+ (re.union (str.to_re "H") (str.to_re "II"))) (re.++ (re.+ (re.union (str.to_re "JJ") (str.to_re "K"))) (re.++ (re.+ (re.+ (str.to_re "LL"))) (re.++ (re.union (re.+ (str.to_re "MMM")) (re.+ (str.to_re "N"))) (re.++ (re.+ (re.union (str.to_re "OO") (str.to_re "PPP"))) (re.++ (re.* (re.union (str.to_re "QQQ") (str.to_re "RRR"))) (re.++ (re.* (re.* (str.to_re "SS"))) (re.++ (re.* (re.* (str.to_re "TT"))) (re.++ (re.+ (re.* (str.to_re "UUU"))) (re.++ (re.+ (re.* (str.to_re "VV"))) (re.++ (re.+ (re.union (str.to_re "WWW") (str.to_re "X"))) (re.++ (re.* (re.+ (str.to_re "YYY"))) (re.++ (re.+ (re.* (str.to_re "Z"))) (re.++ (re.union (re.union (str.to_re "!") (str.to_re """""")) (re.union (str.to_re "###") (str.to_re "$"))) (re.++ (re.+ (re.+ (str.to_re "%%"))) (re.++ (re.+ (re.+ (str.to_re "&&"))) (re.++ (re.* (re.+ (str.to_re "''"))) (re.++ (re.union (re.+ (str.to_re "((")) (re.+ (str.to_re ")))"))) (re.++ (re.* (re.union (str.to_re "***") (str.to_re "+++"))) (re.++ (re.* (re.* (str.to_re ",,,"))) (re.++ (re.+ (re.+ (str.to_re "-"))) (re.++ (re.+ (re.* (str.to_re ".."))) (re.++ (re.+ (re.union (str.to_re "//") (str.to_re "::"))) (re.++ (re.* (re.* (str.to_re ";;"))) (re.++ (re.* (re.union (str.to_re "<<<") (str.to_re "="))) (re.++ (re.* (re.* (str.to_re ">"))) (re.++ (re.union (re.+ (str.to_re "??")) (re.+ (str.to_re "@@"))) (re.+ (re.union (str.to_re "[[[") (str.to_re "\\\\"))))))))))))))))))))))))))))))))))))))))))))))))))))))))
(check-sat)